# Solution for model r5_t27_m6_4 Batch Number: 3
# Finished Task: 26 / 27
# Makespan: 472.0, Total Distance: 554.0, Total Time: 6.6815
# R O S F Batch
0 0 8 0.0 0.0 -1
1 1 20 0.0 0.0 -1
2 2 12 0.0 0.0 -1
3 3 21 0.0 0.0 -1
4 4 26 0.0 0.0 -1
5 1 30 290.0 310.0 0
6 0 14 227.0 250.0 0
7 0 6 185.0 214.0 0
8 0 7 34.0 66.0 0
9 2 19 401.0 422.0 2
10 0 23 380.0 415.0 2
11 0 10 326.0 352.0 0
12 2 31 320.0 352.0 0
13 1 5 258.0 290.0 0
14 0 11 264.0 298.0 0
15 4 18 375.0 411.0 2
16 3 24 176.0 214.0 0
17 4 29 290.0 312.0 0
18 4 -1 451.0 472.0 2
19 2 -1 444.0 466.0 2
20 1 22 164.0 192.0 0
21 3 16 139.0 164.0 0
22 1 13 223.0 248.0 0
23 0 -1 436.0 468.0 2
24 3 25 262.0 294.0 0
25 3 28 318.0 352.0 0
26 4 17 106.0 132.0 0
27 -1 -1 -1.0 -1.0 2
28 3 -1 406.0 430.0 1
29 4 15 332.0 352.0 0
30 1 -1 415.0 444.0 2
31 2 9 371.0 391.0 2
